200
120
100
100
100
99
99
98
97
97
96
96
96
95
94
94
92
92
91
91
90
90
89
89
89
88
88
88
87
87
87
87
85
85
85
84
84
84
84
84
83
82
82
82
82
80
79
79
79
78
78
78
77
76
76
75
71
71
69
69
69
68
68
68
68
67
67
66
66
66
66
65
65
65
64
63
63
61
58
58
58
57
57
56
55
55
55
54
54
54
53
53
52
51
50
50
49
49
49
48
47
46
46
46
45
44
44
44
44
44
44
44
43
43
43
42
42
42
41
41
40
40
39
39
39
39
38
38
38
37
35
35
35
33
32
32
31
31
30
30
29
29
28
28
27
27
26
26
25
25
24
24
23
23
22
22
22
22
22
21
21
20
20
20
19
19
18
16
16
15
15
14
14
14
13
13
13
12
12
12
12
12
11
11
10
10
10
9
8
8
7
7
6
6
3
3
2
2
1
1
1
1
